NAME : OMNETRUN
COMMENT : 524.61
TYPE : CVRP
DIMENSION : 21
EDGE_WEIGHT_TYPE : EUC_2D
CAPACITY : 21
NODE_COORD_SECTION
1 0.107093 -0.77924
2 106.503 -529.971
3 206.486 -1549.87
4 181.774 -2218.29
5 15.9879 -2620.66
6 22.1125 -3068.15
7 119.712 -4302.72
8 176.005 -4807.98
9 237.009 -5197.78
10 206.375 -5664.08
11 483.748 -164.006
12 468.149 -4610.46
13 521.143 -1068.72
14 507.315 -2694.92
15 571.675 -3212.36
16 589.675 -3682.51
17 559.804 -4964.44
18 701.317 -5298.32
19 859.922 -325.176
20 780.574 -805.046
21 804.859 -1736.82
DEMAND_SECTION
1 0
2 1
3 1
4 1
5 1
6 1
7 1
8 1
9 1
10 1
11 1
12 1
13 1
14 1
15 1
16 1
17 1
18 1
19 1
20 1
21 1
DEPOT_SECTION
1
-1
EOF
